sat
(:max-memory         18.12
 :memory             17.99
 :nlsat-propagations 4
 :nlsat-stages       4
 :num-allocs         7504
 :rlimit-count       3312
 :time               0.00
 :total-time         0.02)
